
Gurobi 6.5.2 (win64) logging started 07/23/16 02:38:52


Gurobi 6.5.2 (win64) logging started 07/23/16 02:38:52

Optimize a model with 5410 rows, 901 columns and 12573 nonzeros
Coefficient statistics:
  Matrix range    [4e-06, 1e+03]
  Objective range [1e+00, 1e+00]
  Bounds range    [1e+00, 1e+00]
  RHS range       [1e+00, 1e+03]
Presolve removed 5389 rows and 880 columns
Presolve time: 0.00s
Presolved: 21 rows, 21 columns, 63 nonzeros
Variable types: 21 continuous, 0 integer (0 binary)

Root relaxation: objective 1.410352e+02, 14 iterations, 0.00 seconds

    Nodes    |    Current Node    |     Objective Bounds      |     Work
 Expl Unexpl |  Obj  Depth IntInf | Incumbent    BestBd   Gap | It/Node Time

*    0     0               0     141.0352038  141.03520  0.00%     -    0s

Explored 0 nodes (14 simplex iterations) in 0.01 seconds
Thread count was 8 (of 8 available processors)

Optimal solution found (tolerance 1.00e-04)
Best objective 1.410352037946e+02, best bound 1.410352037946e+02, gap 0.0%

Wrote requested result file 'H2\instance10\\Results10EC_Sol2.lp'

